180
2117
124
0 1
0 3
0 6
0 7
0 10
0 51
0 80
0 91
0 98
1 3
1 6
1 7
1 10
1 13
1 14
1 20
1 25
1 28
1 51
1 67
1 80
1 91
1 98
2 4
2 5
2 8
2 9
2 15
2 18
2 21
2 22
2 30
2 32
2 76
2 78
2 81
2 82
2 85
2 86
2 87
2 92
2 94
2 97
2 105
2 119
2 146
2 160
3 6
3 7
3 10
3 13
3 14
3 20
3 25
3 28
3 41
3 44
3 45
3 50
3 51
3 67
3 80
3 91
3 98
3 126
3 130
3 145
3 157
4 5
4 8
4 9
4 15
4 18
4 21
4 22
4 30
4 32
4 92
4 94
4 97
4 105
4 119
4 146
4 160
5 8
5 9
5 15
5 18
5 21
5 22
5 30
5 32
5 47
5 55
5 84
5 88
5 95
5 96
5 99
5 100
5 101
5 106
5 108
5 127
5 133
5 134
6 7
6 10
6 13
6 14
6 20
6 25
6 28
6 42
6 46
6 47
6 48
6 49
6 51
6 59
6 62
6 67
6 80
6 86
6 91
6 98
7 10
7 13
7 14
7 20
7 25
7 28
7 42
7 46
7 47
7 48
7 49
7 51
7 59
7 62
7 67
7 80
7 86
7 91
7 98
7 127
7 128
7 131
7 133
7 135
7 137
8 9
8 15
8 18
8 21
8 22
8 30
8 32
8 33
8 55
8 60
8 84
8 88
8 95
8 96
8 99
8 100
8 101
8 107
8 111
8 112
8 121
8 123
8 137
8 150
9 15
9 18
9 21
9 22
9 30
9 32
9 33
9 55
9 60
9 84
9 88
9 95
9 96
9 99
9 100
9 101
9 107
9 111
9 112
9 121
9 123
9 137
9 150
9 152
9 154
9 155
9 156
9 157
9 158
9 159
9 162
9 163
10 13
10 14
10 20
10 25
10 28
10 42
10 46
10 47
10 48
10 49
10 51
10 59
10 62
10 67
10 80
10 86
10 91
10 98
10 125
10 129
10 132
10 134
10 136
11 15
11 16
11 18
11 21
11 22
11 37
11 40
12 17
12 19
12 23
12 24
12 26
12 30
12 32
12 36
12 39
12 43
12 64
12 113
12 124
12 139
12 152
12 166
12 169
13 14
13 20
13 25
13 28
13 67
13 80
13 98
14 20
14 25
14 28
14 41
14 44
14 45
14 50
14 67
14 80
14 98
14 126
14 130
14 145
14 157
15 16
15 18
15 21
15 22
15 30
15 32
15 37
15 40
15 76
15 78
15 81
15 82
15 85
15 86
15 87
15 92
15 94
15 97
15 105
15 119
15 146
15 160
16 17
16 18
16 19
16 21
16 22
16 23
16 24
16 26
16 29
16 31
16 33
16 34
16 35
16 37
16 40
16 43
16 77
16 79
16 90
16 93
16 116
16 142
17 19
17 23
17 24
17 26
17 29
17 31
17 33
17 34
17 35
17 36
17 39
17 43
17 93
17 124
17 169
18 21
18 22
18 30
18 32
18 37
18 40
18 92
18 94
18 97
18 105
18 119
18 146
18 160
19 20
19 23
19 24
19 26
19 29
19 31
19 33
19 34
19 35
19 36
19 39
19 42
19 43
19 45
19 51
19 55
19 66
19 68
19 70
19 93
19 106
19 117
19 120
19 124
19 125
19 129
19 130
19 144
19 158
19 169
19 170
19 172
19 173
20 25
20 28
20 41
20 44
20 45
20 50
20 51
20 55
20 67
20 68
20 70
20 75
20 77
20 79
20 80
20 83
20 84
20 88
20 98
20 120
20 126
20 129
20 130
20 145
20 157
20 172
20 173
21 22
21 30
21 32
21 37
21 40
22 30
22 32
22 37
22 40
22 55
22 84
22 88
22 95
22 96
22 99
22 100
22 101
23 24
23 26
23 29
23 31
23 33
23 34
23 35
23 36
23 39
23 43
23 54
23 60
23 69
23 71
23 73
23 85
23 93
23 97
23 124
23 169
24 26
24 29
24 31
24 33
24 34
24 35
24 36
24 39
24 43
24 46
24 49
24 50
24 56
24 57
24 58
24 61
24 63
24 72
24 74
24 87
24 93
24 118
24 122
24 124
24 132
24 134
24 136
24 149
24 165
24 169
24 174
24 175
24 179
25 28
25 42
25 46
25 47
25 48
25 49
25 59
25 62
25 67
25 80
25 86
25 98
25 125
25 129
25 132
25 134
25 136
26 29
26 31
26 33
26 34
26 35
26 36
26 39
26 43
26 50
26 56
26 57
26 58
26 61
26 63
26 72
26 74
26 87
26 93
26 118
26 122
26 124
26 169
27 28
27 67
27 76
27 77
27 90
27 114
27 155
27 167
28 67
28 76
28 77
28 80
28 90
28 98
28 114
28 155
28 167
29 31
29 33
29 34
29 35
29 43
29 93
30 32
30 36
30 64
30 113
30 139
30 152
30 166
31 33
31 34
31 35
31 43
31 54
31 60
31 69
31 71
31 73
31 85
31 93
31 97
32 36
32 47
32 55
32 64
32 84
32 88
32 95
32 96
32 99
32 100
32 101
32 106
32 108
32 113
32 127
32 133
32 134
32 139
32 152
32 166
33 34
33 35
33 43
33 54
33 60
33 69
33 71
33 73
33 85
33 88
33 93
33 97
33 101
33 107
33 111
33 112
33 116
33 119
33 121
33 123
33 137
33 150
34 35
34 43
34 46
34 49
34 50
34 56
34 57
34 58
34 61
34 63
34 72
34 74
34 87
34 93
34 118
34 122
34 132
34 134
34 136
34 149
34 165
34 174
34 175
34 179
35 43
35 50
35 56
35 57
35 58
35 61
35 63
35 72
35 74
35 87
35 93
35 118
35 122
36 37
36 38
36 39
36 40
36 43
36 52
36 64
36 103
36 113
36 124
36 139
36 140
36 152
36 154
36 166
36 168
36 169
37 38
37 39
37 40
37 43
37 52
37 103
37 124
37 140
37 154
37 168
37 169
38 39
38 40
38 43
38 52
38 103
38 124
38 140
38 154
38 168
38 169
39 40
39 43
39 52
39 103
39 124
39 140
39 154
39 168
39 169
40 43
40 52
40 77
40 79
40 90
40 93
40 103
40 116
40 124
40 140
40 142
40 154
40 168
40 169
41 44
41 45
41 50
41 126
41 130
41 145
41 157
42 46
42 47
42 48
42 49
42 59
42 62
42 66
42 68
42 70
42 86
42 98
42 106
42 107
42 117
42 120
42 125
42 128
42 129
42 132
42 134
42 136
42 139
42 141
42 144
42 152
42 155
42 158
42 159
42 166
42 167
42 170
42 171
42 172
42 173
43 52
43 93
43 103
43 124
43 140
43 154
43 168
43 169
44 45
44 50
44 54
44 56
44 57
44 58
44 60
44 61
44 63
44 76
44 78
44 85
44 87
44 97
44 126
44 130
44 145
44 157
45 50
45 51
45 55
45 68
45 70
45 120
45 126
45 129
45 130
45 145
45 157
45 172
45 173
46 47
46 48
46 49
46 50
46 59
46 61
46 62
46 74
46 86
46 98
46 125
46 129
46 132
46 134
46 136
46 149
46 153
46 160
46 161
46 164
46 165
46 174
46 175
46 179
47 48
47 49
47 59
47 62
47 86
47 96
47 98
47 106
47 108
47 127
47 128
47 131
47 133
47 134
47 135
47 137
47 138
47 142
47 146
47 147
47 148
47 150
47 176
48 49
48 59
48 62
48 86
48 98
48 127
48 128
48 131
48 133
48 135
48 137
49 50
49 59
49 61
49 62
49 74
49 86
49 98
49 125
49 129
49 132
49 134
49 136
49 149
49 165
49 174
49 175
49 179
50 54
50 56
50 57
50 58
50 60
50 61
50 63
50 72
50 74
50 76
50 78
50 85
50 87
50 97
50 118
50 122
50 126
50 130
50 132
50 134
50 136
50 145
50 149
50 157
50 165
50 174
50 175
50 179
51 55
51 68
51 70
51 75
51 77
51 79
51 80
51 83
51 84
51 88
51 89
51 90
51 91
51 93
51 98
51 102
51 116
51 120
51 129
51 130
51 138
51 142
51 153
51 165
51 172
51 173
52 53
52 59
52 62
52 66
52 81
52 86
52 103
52 117
52 124
52 140
52 144
52 154
52 168
52 169
53 59
53 62
53 66
53 81
53 86
53 117
53 144
54 56
54 57
54 58
54 60
54 61
54 63
54 69
54 71
54 73
54 76
54 78
54 85
54 87
54 97
54 116
54 119
54 121
54 123
55 68
55 70
55 75
55 77
55 79
55 80
55 83
55 84
55 88
55 95
55 96
55 99
55 100
55 101
55 120
55 129
55 130
55 172
55 173
56 57
56 58
56 60
56 61
56 63
56 72
56 74
56 76
56 78
56 85
56 87
56 97
56 111
56 118
56 122
56 154
56 156
56 157
56 162
56 168
56 169
56 177
57 58
57 59
57 60
57 61
57 63
57 72
57 74
57 76
57 78
57 85
57 87
57 97
57 99
57 103
57 104
57 110
57 118
57 122
57 140
57 143
57 145
57 163
57 176
57 178
58 59
58 60
58 61
58 63
58 72
58 74
58 76
58 78
58 85
58 87
58 97
58 118
58 122
58 163
58 176
58 178
59 62
59 66
59 72
59 81
59 86
59 87
59 98
59 117
59 125
59 129
59 132
59 134
59 136
59 144
59 163
59 176
59 178
60 61
60 63
60 69
60 71
60 73
60 76
60 78
60 85
60 87
60 88
60 97
60 101
60 107
60 111
60 112
60 116
60 119
60 121
60 123
60 137
60 150
61 63
61 72
61 74
61 76
61 78
61 85
61 87
61 97
61 118
61 122
61 132
61 134
61 136
61 149
61 165
61 174
61 175
61 179
62 66
62 81
62 86
62 98
62 117
62 125
62 129
62 132
62 134
62 136
62 144
63 72
63 74
63 76
63 78
63 85
63 87
63 97
63 118
63 122
64 65
64 67
64 76
64 78
64 113
64 114
64 115
64 139
64 141
64 152
64 155
64 166
64 167
65 67
65 76
65 78
65 113
65 114
65 115
65 139
65 141
65 152
65 155
65 166
65 167
66 68
66 70
66 81
66 86
66 106
66 117
66 120
66 125
66 129
66 144
66 158
66 170
66 172
66 173
67 76
67 77
67 78
67 80
67 90
67 98
67 113
67 114
67 115
67 139
67 141
67 152
67 155
67 166
67 167
68 70
68 106
68 117
68 120
68 125
68 129
68 130
68 144
68 158
68 170
68 172
68 173
69 71
69 73
69 85
69 97
69 102
69 105
69 109
69 116
69 119
69 121
69 123
69 138
69 142
69 146
69 147
69 153
69 160
69 165
69 174
70 75
70 77
70 79
70 80
70 83
70 84
70 88
70 106
70 117
70 120
70 125
70 129
70 130
70 144
70 158
70 170
70 172
70 173
71 73
71 85
71 97
72 74
72 87
72 118
72 122
72 163
72 176
72 178
73 85
73 97
73 99
73 100
73 103
73 104
73 110
73 116
73 119
73 121
73 123
73 164
74 87
74 118
74 122
74 132
74 134
74 136
74 149
74 165
74 174
74 175
74 179
75 77
75 79
75 80
75 83
75 84
75 88
75 89
75 90
75 91
75 93
75 98
75 102
75 116
75 138
75 142
75 153
75 165
75 173
76 77
76 78
76 81
76 82
76 85
76 86
76 87
76 90
76 92
76 97
76 105
76 113
76 114
76 115
76 139
76 141
76 152
76 155
76 166
76 167
77 79
77 80
77 83
77 84
77 88
77 89
77 90
77 91
77 93
77 98
77 102
77 114
77 116
77 138
77 142
77 153
77 155
77 165
77 167
77 173
78 81
78 82
78 85
78 86
78 87
78 92
78 97
78 105
78 113
78 114
78 115
78 139
78 141
78 152
78 155
78 166
78 167
79 80
79 83
79 84
79 88
79 89
79 90
79 91
79 93
79 98
79 102
79 116
79 138
79 142
79 153
79 165
79 173
80 83
80 84
80 88
80 89
80 90
80 91
80 93
80 98
80 102
80 116
80 138
80 142
80 153
80 165
80 173
81 82
81 85
81 86
81 87
81 92
81 97
81 105
81 117
81 144
82 85
82 86
82 87
82 92
82 97
82 105
83 84
83 88
83 173
84 88
84 95
84 96
84 99
84 100
84 101
84 173
85 86
85 87
85 92
85 97
85 105
85 116
85 119
85 121
85 123
86 87
86 92
86 97
86 98
86 105
86 117
86 144
87 92
87 97
87 105
87 118
87 122
87 163
87 176
87 178
88 95
88 96
88 99
88 100
88 101
88 107
88 111
88 112
88 121
88 123
88 137
88 150
88 173
89 90
89 91
89 93
89 98
89 102
89 116
89 138
89 142
89 153
89 165
90 91
90 93
90 98
90 102
90 114
90 116
90 138
90 142
90 153
90 155
90 165
90 167
91 93
91 98
91 102
91 116
91 138
91 142
91 153
91 165
92 94
92 97
92 105
92 119
92 146
92 160
93 98
93 102
93 116
93 138
93 142
93 153
93 165
94 97
94 105
94 119
94 146
94 160
95 96
95 99
95 100
95 101
96 99
96 100
96 101
96 106
96 108
96 127
96 133
96 134
97 105
97 119
97 146
97 160
98 102
98 116
98 138
98 142
98 153
98 165
99 100
99 101
99 103
99 104
99 110
99 140
99 143
99 145
99 164
100 101
100 103
100 104
100 110
100 164
101 107
101 111
101 112
101 121
101 123
101 137
101 150
102 105
102 109
102 116
102 119
102 138
102 142
102 146
102 147
102 153
102 160
102 165
102 174
103 104
103 110
103 118
103 124
103 126
103 130
103 140
103 143
103 145
103 154
103 156
103 157
103 164
103 168
103 169
104 110
104 118
104 124
104 126
104 130
104 140
104 143
104 145
104 154
104 156
104 157
104 164
104 168
104 169
105 109
105 116
105 119
105 138
105 142
105 146
105 147
105 153
105 160
105 165
105 174
106 108
106 113
106 114
106 115
106 117
106 118
106 120
106 122
106 125
106 127
106 129
106 133
106 134
106 144
106 158
106 170
106 172
106 173
107 111
107 112
107 121
107 123
107 125
107 128
107 129
107 137
107 139
107 141
107 144
107 150
107 152
107 154
107 155
107 156
107 157
107 158
107 159
107 162
107 163
107 166
107 167
107 170
107 171
107 172
107 173
108 113
108 114
108 115
108 117
108 118
108 120
108 122
108 127
108 133
108 134
109 116
109 119
109 138
109 142
109 146
109 147
109 153
109 160
109 165
109 174
110 140
110 143
110 145
110 164
111 112
111 118
111 121
111 123
111 137
111 150
111 152
111 154
111 155
111 156
111 157
111 158
111 159
111 162
111 163
111 168
111 169
111 177
112 121
112 123
112 137
112 150
113 114
113 115
113 117
113 118
113 120
113 122
113 127
113 139
113 141
113 152
113 155
113 166
113 167
114 115
114 117
114 118
114 120
114 122
114 127
114 139
114 141
114 152
114 155
114 166
114 167
115 117
115 118
115 120
115 122
115 127
115 139
115 141
115 152
115 155
115 166
115 167
116 119
116 121
116 123
116 138
116 142
116 146
116 147
116 153
116 160
116 165
116 174
117 118
117 120
117 122
117 125
117 127
117 129
117 144
117 158
117 170
117 172
117 173
118 120
118 122
118 124
118 126
118 127
118 130
118 140
118 143
118 145
118 154
118 156
118 157
118 162
118 168
118 169
118 177
119 121
119 123
119 138
119 142
119 146
119 147
119 153
119 160
119 165
119 174
120 122
120 125
120 127
120 129
120 130
120 144
120 158
120 170
120 172
120 173
121 123
121 137
121 150
122 127
123 137
123 150
123 152
123 154
123 155
123 156
123 157
123 158
123 159
123 162
123 163
124 126
124 130
124 140
124 143
124 145
124 154
124 156
124 157
124 168
124 169
125 128
125 129
125 132
125 134
125 136
125 139
125 141
125 144
125 152
125 155
125 158
125 159
125 166
125 167
125 170
125 171
125 172
125 173
126 130
126 140
126 143
126 145
126 154
126 156
126 157
126 168
126 169
127 128
127 131
127 133
127 134
127 135
127 137
127 138
127 142
127 146
127 147
127 148
127 150
127 176
128 129
128 131
128 133
128 135
128 137
128 139
128 141
128 144
128 149
128 151
128 152
128 155
128 158
128 159
128 166
128 167
128 170
128 171
128 172
128 173
129 130
129 132
129 134
129 136
129 139
129 141
129 144
129 152
129 155
129 158
129 159
129 166
129 167
129 170
129 171
129 172
129 173
130 140
130 143
130 145
130 154
130 156
130 157
130 168
130 169
130 172
130 173
131 133
131 135
131 137
131 138
131 142
131 146
131 147
131 148
131 150
131 176
132 134
132 136
132 149
132 153
132 160
132 161
132 164
132 165
132 174
132 175
132 179
133 134
133 135
133 137
133 138
133 142
133 146
133 147
133 148
133 150
133 176
134 136
134 149
134 153
134 160
134 161
134 164
134 165
134 174
134 175
134 179
135 137
136 149
136 165
136 174
136 175
136 179
137 138
137 142
137 146
137 147
137 148
137 150
137 176
138 142
138 146
138 147
138 148
138 150
138 153
138 160
138 165
138 174
138 176
139 141
139 144
139 149
139 151
139 152
139 155
139 158
139 159
139 166
139 167
139 170
139 171
139 172
139 173
140 143
140 145
140 154
140 156
140 157
140 168
140 169
141 144
141 149
141 151
141 152
141 155
141 158
141 159
141 166
141 167
141 170
141 171
141 172
141 173
142 146
142 147
142 148
142 150
142 153
142 160
142 165
142 174
142 176
143 145
143 154
143 156
143 157
143 168
143 169
144 149
144 151
144 152
144 155
144 158
144 159
144 166
144 167
144 170
144 171
144 172
144 173
145 154
145 156
145 157
145 168
145 169
146 147
146 148
146 150
146 153
146 160
146 165
146 174
146 176
147 148
147 150
147 153
147 160
147 165
147 174
147 176
148 150
148 176
149 151
149 165
149 174
149 175
149 179
150 176
152 154
152 155
152 156
152 157
152 158
152 159
152 162
152 163
152 166
152 167
152 170
152 171
152 172
152 173
153 160
153 161
153 164
153 165
153 174
153 175
154 155
154 156
154 157
154 158
154 159
154 162
154 163
154 168
154 169
154 177
155 156
155 157
155 158
155 159
155 162
155 163
155 166
155 167
155 170
155 171
155 172
155 173
156 157
156 158
156 159
156 162
156 163
156 168
156 169
156 177
157 158
157 159
157 162
157 163
157 168
157 169
157 177
158 159
158 162
158 163
158 166
158 167
158 170
158 171
158 172
158 173
159 162
159 163
159 166
159 167
159 170
159 171
159 172
159 173
160 161
160 164
160 165
160 174
160 175
161 164
161 165
161 174
161 175
162 163
162 168
162 169
162 177
163 176
163 178
164 165
164 174
164 175
165 174
165 175
165 179
166 167
166 170
166 171
166 172
166 173
167 170
167 171
167 172
167 173
168 169
168 177
169 177
170 171
170 172
170 173
171 172
171 173
172 173
174 175
174 179
175 179
176 178
0
1
2 3
4
5
6
7
8
9 10
11 12
13
14 15
16 17
18 19
20 21
22
23
24
25 26
27
28
29
30
31 32
33 34
35
36 37
38
39 40
41 42
43 44
45
46
47
48
49 50
51 52
53
54 55
56 57
58 59
60 61
62 63
64
65
66 67
68
69 70
71
72 73
74
75
76 77
78 79
80 81
82
83
84 85
86
87
88
89
90 91
92
93
94
95
96 97
98 99
100
101
102
103
104
105 106
107 108
109
110 111
112
113
114
115 116
117 118
119 120
121
122 123
124
125 126
127 128
129 130
131 132
133 134
135
136 137
138 139
140
141 142
143 144
145
146
147
148
149 150
151
152 153
154 155
156
157 158
159
160
161
162
163 164
165 166
167 168
169
170
171
172
173 174
175 176
177
178
179
